c A SAT instance generated from a 3-CNF formula that had 24 clauses and 12 variables
p cnf 12 24
8 3 4 0
10 -7 11 0
12 9 4 0
-5 4 1 0
-3 11 -1 0
-5 -9 4 0
-1 2 12 0
3 6 -4 0
12 -3 -11 0
-1 10 6 0
3 2 -12 0
10 -9 1 0
-6 10 -3 0
-3 2 -1 0
-8 -6 11 0
7 8 9 0
8 -6 -12 0
11 3 -8 0
6 -4 -2 0
1 4 -7 0
4 12 -3 0
-4 11 -8 0
8 2 -12 0
8 6 -1 0
